HUN,8,6,868
2,22,0,57,5,51,1,45,3,46,4,89
0,42,4,70,2,30,1,55,5,7,3,33
2,79,5,30,4,58,3,93,0,40,1,76
2,96,5,35,3,36,0,1,1,30,4,23
4,14,0,65,2,86,5,12,3,5,1,96
3,47,0,43,2,57,4,76,1,60,5,93
0,66,4,6,5,86,1,41,3,26,2,10
5,61,2,75,1,8,0,29,4,3,3,61
